
n_res = 6;
rcap = [106, 111, 110, 115, 1505, 1554];
rtype = [1, 1, 1, 1, 2, 2];
n_tasks = 100;
modes =  [{1, 2, 3}, {4, 5, 6}, {7, 8, 9}, {10, 11, 12}, {13, 14, 15}, {16, 17, 18}, {19, 20, 21}, {22, 23, 24}, {25, 26, 27}, {28, 29, 30}, {31, 32, 33}, {34, 35, 36}, {37, 38, 39}, {40, 41, 42}, {43, 44, 45}, {46, 47, 48}, {49, 50, 51}, {52, 53, 54}, {55, 56, 57}, {58, 59, 60}, {61, 62, 63}, {64, 65, 66}, {67, 68, 69}, {70, 71, 72}, {73, 74, 75}, {76, 77, 78}, {79, 80, 81}, {82, 83, 84}, {85, 86, 87}, {88, 89, 90}, {91, 92, 93}, {94, 95, 96}, {97, 98, 99}, {100, 101, 102}, {103, 104, 105}, {106, 107, 108}, {109, 110, 111}, {112, 113, 114}, {115, 116, 117}, {118, 119, 120}, {121, 122, 123}, {124, 125, 126}, {127, 128, 129}, {130, 131, 132}, {133, 134, 135}, {136, 137, 138}, {139, 140, 141}, {142, 143, 144}, {145, 146, 147}, {148, 149, 150}, {151, 152, 153}, {154, 155, 156}, {157, 158, 159}, {160, 161, 162}, {163, 164, 165}, {166, 167, 168}, {169, 170, 171}, {172, 173, 174}, {175, 176, 177}, {178, 179, 180}, {181, 182, 183}, {184, 185, 186}, {187, 188, 189}, {190, 191, 192}, {193, 194, 195}, {196, 197, 198}, {199, 200, 201}, {202, 203, 204}, {205, 206, 207}, {208, 209, 210}, {211, 212, 213}, {214, 215, 216}, {217, 218, 219}, {220, 221, 222}, {223, 224, 225}, {226, 227, 228}, {229, 230, 231}, {232, 233, 234}, {235, 236, 237}, {238, 239, 240}, {241, 242, 243}, {244, 245, 246}, {247, 248, 249}, {250, 251, 252}, {253, 254, 255}, {256, 257, 258}, {259, 260, 261}, {262, 263, 264}, {265, 266, 267}, {268, 269, 270}, {271, 272, 273}, {274, 275, 276}, {277, 278, 279}, {280, 281, 282}, {283, 284, 285}, {286, 287, 288}, {289, 290, 291}, {292, 293, 294}, {295, 296, 297}, {298, 299, 300}];
succ =  [{52, 38, 36, 34, 33, 22, 20, 19, 11}, {51, 49, 38, 36, 34, 33, 29, 23, 22, 19}, {52, 43, 38, 37, 36, 33, 30, 28, 25, 17}, {28, 25, 24, 22, 19}, {60, 55, 53, 51, 49, 48, 47, 43, 37, 34, 23, 22}, {56, 53, 50, 49, 47, 43, 41, 38, 36, 34, 20}, {61, 57, 54, 41, 39, 24, 19}, {57, 52, 50, 49, 48, 47, 46, 43, 41, 37, 20}, {61, 57, 54, 48, 45, 40, 39, 37, 27, 24}, {64, 61, 60, 57, 56, 53, 52, 49, 48, 41, 40, 39, 34, 31}, {61, 57, 55, 54, 53, 51, 49, 48, 46, 45, 41, 40, 39, 27}, {61, 55, 54, 52, 51, 50, 49, 48, 45, 43, 42, 41, 37, 29}, {60, 47, 25, 22}, {71, 64, 61, 60, 57, 56, 55, 54, 53, 51, 50, 49, 45, 41, 37, 35, 34}, {61, 57, 55, 53, 52, 51, 45, 44, 37, 34, 27}, {71, 64, 61, 57, 56, 55, 53, 51, 50, 49, 48, 47, 45, 42, 37, 34}, {72, 64, 61, 60, 58, 57, 56, 55, 54, 51, 48, 47, 46, 44, 42, 39}, {71, 64, 61, 58, 57, 56, 55, 51, 48, 47, 46, 42, 39}, {64, 62, 60, 56, 53, 48, 45, 43, 40, 37, 35}, {72, 55, 54, 51, 45, 44, 30}, {62, 61, 55, 54, 53, 51, 50, 45, 44, 40, 35}, {74, 72, 71, 66, 64, 62, 61, 56, 54, 50, 45, 41, 35}, {74, 72, 66, 64, 61, 57, 56, 52, 44, 39, 35}, {78, 71, 70, 67, 64, 63, 58, 55, 53, 51, 50, 49, 34}, {74, 69, 57, 55, 54, 53, 49, 46, 45, 41, 39}, {74, 72, 70, 63, 60, 59, 58, 56, 55, 50, 48, 46, 44}, {74, 71, 64, 58, 56, 50, 47, 35}, {78, 77, 75, 71, 70, 67, 65, 63, 62, 61, 59, 55, 51, 47}, {74, 73, 72, 71, 67, 64, 63, 60, 58, 56, 47, 46}, {97, 78, 74, 64, 62, 61, 60, 35}, {100, 77, 71, 70, 55, 51, 45, 37}, {100, 78, 77, 71, 70, 69, 67, 65, 63, 62, 58, 57, 55, 53, 51}, {80, 74, 71, 70, 63, 59, 56, 55, 50, 48}, {100, 97, 81, 74, 73, 72, 69, 66, 65, 59, 46}, {100, 81, 77, 73, 69, 67, 65, 42}, {100, 97, 94, 80, 66, 63, 59, 48}, {99, 98, 96, 95, 93, 80, 78, 73, 72, 69, 68, 67, 66, 63, 58}, {99, 98, 96, 80, 78, 77, 73, 69, 67, 65, 63, 62, 58}, {100, 90, 80, 78, 75, 73, 70, 67, 62, 59, 50}, {100, 98, 97, 94, 89, 81, 80, 76, 75, 74, 73, 71, 70, 67, 65}, {98, 96, 95, 93, 91, 88, 80, 79, 77, 73, 68, 58}, {96, 95, 94, 93, 80, 75, 70, 63, 59}, {96, 80, 73, 72, 69, 65, 58}, {100, 97, 96, 94, 93, 91, 86, 81, 79, 76, 75, 71, 69, 68}, {99, 98, 96, 78, 67, 63, 58}, {99, 96, 91, 90, 86, 80, 77, 76, 75, 68, 62}, {100, 97, 96, 95, 94, 93, 91, 86, 82, 81, 80, 69, 68}, {98, 96, 81, 78, 75, 69, 67, 65}, {99, 98, 94, 93, 89, 88, 87, 86, 81, 80, 79, 76, 75, 73}, {99, 97, 96, 94, 86, 84, 77, 68, 65}, {99, 97, 95, 94, 93, 91, 90, 84, 80, 79, 74, 68}, {100, 98, 97, 95, 89, 88, 87, 86, 84, 83, 81, 80, 75}, {96, 95, 91, 90, 88, 86, 84, 83, 79, 75, 68}, {99, 98, 95, 93, 91, 90, 88, 86, 85, 82, 76, 73}, {96, 94, 93, 89, 86, 85, 66}, {98, 97, 94, 93, 92, 91, 87, 86, 84, 83, 81}, {95, 93, 92, 91, 89, 86, 84, 83, 80, 79}, {97, 94, 92, 89, 87, 86, 84, 81, 75}, {99, 98, 88, 86, 83, 79, 68}, {89, 85, 84, 83, 65}, {99, 90, 89, 88, 87, 86, 83, 79}, {94, 93, 89, 88, 84, 83, 79}, {91, 90, 87, 86, 82, 76}, {89, 86, 82, 69}, {95, 93, 91, 88, 87, 79}, {92, 91, 90, 82, 76}, {88, 86, 85, 83, 79}, {92, 89, 87, 85}, {88, 85, 84, 83}, {91, 87, 85, 84}, {95, 90, 88, 87}, {94, 90, 88, 83}, {92, 84, 83}, {87, 86, 82}, {85, 82}, {84, 83}, {83, 82}, {89, 84}, {82}, {85}, {90}, {}, {}, {}, {}, {}, {}, {}, {}, {}, {}, {}, {}, {}, {}, {}, {}, {}, {}, {}];
n_opt = 300;
dur = [2, 7, 28, 12, 13, 14, 16, 19, 24, 5, 17, 19, 4, 8, 21, 3, 11, 21, 4, 7, 24, 4, 9, 21, 8, 10, 18, 13, 14, 22, 2, 4, 24, 6, 11, 13, 3, 18, 25, 5, 13, 22, 9, 10, 27, 13, 19, 21, 3, 14, 25, 8, 9, 29, 1, 3, 12, 2, 3, 26, 6, 14, 19, 1, 15, 28, 18, 21, 30, 15, 18, 30, 21, 22, 25, 14, 19, 26, 6, 13, 21, 5, 6, 18, 9, 14, 22, 6, 8, 24, 4, 22, 23, 4, 14, 27, 5, 23, 24, 18, 19, 20, 1, 4, 20, 10, 19, 30, 13, 21, 22, 7, 20, 23, 13, 22, 30, 16, 21, 27, 15, 19, 24, 1, 2, 27, 14, 16, 26, 4, 21, 29, 9, 10, 26, 3, 4, 25, 10, 11, 20, 3, 6, 17, 1, 8, 9, 1, 10, 14, 3, 6, 28, 9, 12, 22, 9, 10, 17, 13, 28, 29, 24, 25, 28, 8, 10, 30, 1, 2, 25, 6, 22, 29, 11, 20, 28, 4, 5, 6, 18, 21, 27, 13, 15, 16, 6, 9, 19, 19, 27, 30, 3, 5, 8, 2, 3, 22, 3, 10, 11, 6, 16, 30, 10, 11, 17, 4, 24, 26, 3, 7, 8, 7, 13, 25, 9, 23, 26, 4, 15, 19, 4, 11, 16, 14, 15, 28, 17, 27, 28, 1, 18, 24, 10, 12, 22, 3, 14, 16, 16, 27, 28, 6, 8, 19, 22, 23, 26, 12, 14, 23, 5, 15, 17, 2, 3, 12, 6, 11, 27, 4, 14, 20, 8, 14, 15, 4, 22, 26, 20, 26, 27, 1, 12, 13, 5, 7, 19, 3, 6, 30, 4, 7, 28, 9, 10, 26, 2, 14, 27, 10, 24, 30, 11, 17, 22, 3, 18, 20];
rreq = [|26, 24, 22, 15, 14, 14, 28, 26, 26, 21, 18, 13, 14, 9, 8, 15, 15, 12, 9, 7, 5, 19, 17, 12, 15, 10, 4, 13, 9, 6, 27, 21, 15, 18, 15, 10, 11, 8, 5, 27, 27, 26, 5, 2, 1, 9, 5, 2, 20, 16, 10, 28, 27, 27, 23, 23, 13, 23, 20, 12, 25, 16, 7, 24, 14, 4, 25, 17, 2, 27, 17, 12, 24, 21, 17, 24, 22, 22, 13, 10, 10, 7, 6, 5, 6, 5, 1, 18, 17, 16, 11, 9, 8, 15, 14, 12, 27, 20, 12, 20, 19, 18, 21, 15, 12, 23, 17, 9, 21, 20, 16, 12, 11, 10, 9, 8, 7, 10, 9, 6, 13, 13, 12, 22, 15, 7, 20, 8, 8, 24, 15, 5, 21, 18, 18, 24, 22, 20, 15, 10, 9, 21, 16, 13, 28, 23, 22, 20, 20, 20, 16, 16, 16, 24, 15, 11, 22, 19, 15, 22, 21, 21, 22, 19, 17, 12, 11, 9, 11, 8, 5, 26, 21, 18, 17, 10, 5, 10, 10, 8, 11, 10, 9, 21, 18, 14, 17, 16, 6, 11, 7, 4, 29, 21, 7, 11, 10, 8, 19, 17, 14, 28, 27, 25, 20, 15, 7, 11, 6, 4, 23, 21, 15, 18, 18, 16, 16, 11, 8, 18, 17, 15, 17, 12, 9, 14, 14, 14, 17, 13, 10, 13, 11, 5, 22, 18, 13, 15, 13, 13, 14, 14, 14, 11, 11, 10, 7, 6, 5, 24, 24, 24, 14, 8, 6, 21, 12, 8, 24, 13, 10, 23, 23, 22, 16, 7, 4, 25, 22, 21, 9, 8, 8, 21, 14, 7, 16, 10, 8, 26, 24, 22, 24, 18, 17, 27, 24, 18, 14, 6, 4, 27, 23, 23, 9, 9, 9, 26, 23, 22
 |22, 12, 10, 28, 18, 17, 24, 16, 12, 17, 10, 4, 15, 8, 6, 21, 15, 11, 11, 10, 9, 8, 7, 6, 11, 7, 4, 14, 14, 14, 25, 22, 17, 28, 10, 7, 11, 9, 2, 20, 20, 19, 12, 12, 12, 21, 20, 17, 22, 19, 12, 18, 13, 11, 28, 26, 25, 14, 13, 8, 30, 27, 27, 17, 13, 13, 13, 12, 10, 22, 17, 8, 28, 27, 24, 13, 10, 2, 12, 7, 5, 11, 11, 5, 19, 12, 5, 20, 16, 15, 28, 20, 15, 27, 26, 21, 22, 20, 11, 15, 11, 10, 23, 18, 11, 16, 15, 11, 7, 7, 7, 27, 24, 18, 15, 11, 10, 21, 17, 12, 22, 18, 8, 17, 11, 9, 22, 15, 14, 15, 10, 3, 11, 8, 5, 20, 19, 18, 26, 24, 24, 15, 13, 9, 4, 3, 2, 21, 18, 5, 14, 13, 13, 16, 11, 6, 16, 14, 13, 17, 12, 6, 27, 23, 21, 27, 24, 21, 25, 25, 23, 15, 12, 6, 22, 20, 14, 10, 7, 4, 14, 13, 10, 24, 18, 15, 24, 24, 24, 23, 19, 19, 15, 10, 3, 17, 12, 3, 17, 11, 9, 9, 9, 9, 24, 20, 19, 18, 16, 16, 24, 19, 17, 26, 23, 21, 24, 21, 19, 29, 26, 25, 17, 15, 7, 12, 10, 10, 23, 18, 15, 25, 13, 8, 26, 11, 9, 9, 7, 4, 16, 16, 13, 13, 10, 7, 23, 22, 21, 17, 17, 15, 21, 15, 1, 24, 24, 21, 30, 26, 25, 13, 13, 10, 21, 13, 5, 21, 18, 11, 16, 13, 13, 14, 12, 2, 21, 19, 18, 24, 20, 16, 30, 28, 27, 19, 14, 9, 3, 2, 1, 22, 20, 14, 14, 11, 6, 27, 25, 24
 |11, 6, 5, 18, 18, 10, 20, 13, 10, 13, 10, 8, 22, 11, 5, 28, 26, 26, 6, 4, 1, 16, 14, 9, 19, 19, 18, 3, 1, 1, 29, 27, 27, 27, 26, 26, 4, 3, 2, 22, 11, 3, 15, 11, 8, 24, 22, 12, 24, 17, 12, 6, 6, 6, 14, 11, 9, 24, 19, 12, 27, 24, 21, 23, 20, 17, 18, 13, 9, 15, 13, 8, 19, 14, 8, 28, 23, 16, 24, 21, 15, 23, 20, 19, 24, 13, 2, 14, 13, 12, 3, 2, 2, 26, 23, 22, 16, 10, 8, 9, 9, 7, 20, 19, 19, 25, 24, 24, 22, 21, 21, 21, 20, 20, 24, 20, 7, 12, 11, 9, 27, 26, 25, 21, 12, 7, 2, 2, 2, 23, 21, 20, 23, 19, 12, 18, 17, 17, 16, 14, 13, 20, 18, 10, 24, 21, 14, 15, 14, 11, 12, 10, 7, 24, 16, 4, 27, 14, 5, 16, 14, 11, 29, 28, 28, 13, 10, 6, 21, 18, 17, 14, 10, 8, 12, 9, 8, 5, 2, 1, 30, 28, 27, 27, 25, 21, 5, 5, 5, 23, 20, 18, 22, 19, 19, 22, 22, 21, 7, 6, 5, 15, 10, 7, 13, 11, 11, 19, 11, 4, 22, 14, 7, 22, 18, 13, 22, 20, 17, 26, 18, 5, 4, 3, 3, 24, 23, 22, 16, 8, 6, 24, 19, 10, 15, 14, 14, 17, 16, 13, 29, 22, 10, 18, 17, 17, 26, 20, 18, 18, 14, 12, 18, 15, 15, 28, 22, 20, 23, 15, 8, 7, 6, 4, 21, 17, 14, 16, 13, 8, 22, 14, 8, 3, 2, 1, 19, 19, 19, 26, 17, 7, 25, 20, 17, 12, 11, 11, 23, 20, 15, 13, 10, 6, 24, 23, 23, 24, 24, 24
 |6, 4, 3, 12, 10, 8, 20, 20, 15, 21, 15, 2, 21, 17, 12, 10, 5, 4, 19, 16, 15, 7, 7, 7, 14, 13, 13, 19, 15, 13, 25, 18, 17, 27, 21, 13, 16, 12, 9, 26, 15, 12, 21, 17, 14, 19, 17, 15, 24, 22, 16, 22, 15, 4, 12, 6, 1, 30, 22, 18, 25, 25, 25, 18, 13, 10, 25, 21, 18, 23, 23, 19, 24, 23, 19, 27, 25, 24, 28, 24, 21, 15, 13, 10, 18, 13, 10, 28, 28, 28, 18, 16, 15, 19, 11, 7, 10, 7, 5, 14, 11, 5, 13, 9, 3, 20, 13, 3, 10, 10, 6, 28, 19, 9, 18, 12, 6, 13, 11, 10, 23, 22, 11, 8, 7, 7, 14, 10, 7, 27, 19, 17, 17, 16, 15, 25, 25, 25, 12, 7, 7, 22, 15, 13, 15, 10, 6, 19, 15, 9, 16, 15, 15, 2, 1, 1, 13, 12, 6, 22, 18, 16, 17, 17, 17, 15, 15, 14, 8, 7, 6, 20, 11, 5, 18, 16, 11, 15, 15, 13, 13, 12, 8, 22, 21, 13, 19, 16, 5, 12, 11, 10, 22, 17, 9, 16, 15, 14, 19, 16, 10, 21, 17, 13, 25, 23, 22, 13, 10, 9, 22, 20, 16, 18, 14, 13, 25, 23, 19, 15, 13, 10, 13, 10, 9, 16, 13, 5, 12, 11, 7, 23, 21, 13, 13, 10, 7, 20, 17, 14, 26, 16, 10, 24, 17, 10, 28, 28, 28, 14, 10, 9, 14, 11, 9, 12, 10, 10, 18, 18, 15, 22, 20, 19, 16, 12, 9, 14, 12, 2, 20, 13, 9, 6, 4, 3, 9, 5, 3, 13, 12, 10, 17, 17, 16, 21, 13, 11, 11, 9, 5, 3, 3, 2, 22, 18, 18, 25, 15, 10
 |7, 5, 2, 13, 12, 12, 27, 20, 10, 20, 13, 10, 26, 21, 13, 25, 18, 16, 14, 10, 5, 24, 19, 17, 11, 8, 7, 17, 14, 10, 21, 17, 13, 24, 24, 24, 25, 22, 16, 16, 14, 11, 17, 12, 9, 20, 19, 18, 19, 16, 10, 3, 2, 2, 26, 19, 15, 24, 20, 12, 14, 11, 9, 10, 10, 9, 18, 16, 11, 23, 15, 12, 22, 22, 19, 21, 20, 18, 18, 14, 13, 6, 5, 5, 19, 14, 8, 15, 15, 15, 18, 16, 13, 10, 6, 2, 22, 17, 8, 15, 9, 7, 16, 15, 11, 29, 29, 29, 2, 1, 1, 29, 18, 11, 12, 11, 10, 17, 16, 16, 11, 8, 4, 14, 10, 7, 7, 4, 4, 19, 14, 10, 9, 8, 7, 24, 12, 7, 11, 10, 10, 12, 7, 5, 25, 22, 22, 24, 20, 18, 24, 14, 6, 21, 19, 12, 14, 12, 11, 28, 26, 26, 25, 15, 12, 18, 18, 18, 30, 18, 5, 15, 12, 11, 21, 11, 6, 20, 17, 16, 25, 24, 24, 15, 14, 12, 13, 11, 9, 15, 12, 11, 22, 21, 20, 30, 28, 28, 21, 19, 16, 19, 18, 17, 27, 15, 2, 8, 8, 6, 22, 15, 5, 12, 10, 7, 20, 19, 19, 26, 24, 23, 28, 27, 26, 10, 9, 8, 12, 11, 11, 6, 5, 3, 25, 20, 11, 16, 15, 15, 16, 13, 9, 13, 8, 5, 25, 13, 1, 16, 15, 15, 18, 12, 6, 24, 24, 18, 21, 16, 10, 8, 7, 7, 5, 3, 2, 24, 17, 14, 24, 23, 21, 27, 27, 24, 26, 19, 17, 17, 14, 9, 15, 12, 10, 22, 20, 17, 24, 15, 10, 18, 16, 14, 13, 12, 11, 16, 13, 10
 |21, 16, 4, 13, 10, 7, 9, 8, 8, 26, 26, 26, 21, 20, 18, 19, 15, 9, 26, 23, 18, 24, 19, 12, 27, 15, 15, 24, 20, 18, 9, 7, 4, 25, 12, 3, 22, 15, 8, 25, 23, 22, 23, 16, 11, 22, 21, 20, 22, 16, 12, 28, 26, 24, 5, 3, 3, 22, 19, 18, 27, 25, 23, 21, 20, 19, 27, 22, 16, 20, 16, 13, 21, 20, 19, 15, 10, 9, 10, 9, 7, 21, 20, 20, 24, 23, 17, 19, 10, 5, 15, 11, 9, 7, 4, 3, 22, 18, 11, 24, 15, 10, 26, 25, 22, 4, 3, 2, 13, 12, 12, 18, 14, 10, 24, 21, 13, 29, 22, 17, 2, 2, 2, 24, 18, 17, 6, 4, 4, 20, 19, 11, 18, 11, 6, 28, 19, 15, 18, 18, 17, 17, 16, 15, 5, 3, 2, 24, 15, 11, 16, 13, 11, 19, 13, 10, 17, 16, 8, 13, 10, 5, 15, 13, 13, 10, 10, 8, 14, 11, 10, 13, 8, 6, 14, 9, 6, 20, 11, 6, 13, 10, 8, 24, 24, 22, 15, 12, 10, 15, 12, 8, 25, 20, 17, 27, 19, 18, 23, 15, 11, 25, 20, 19, 20, 15, 8, 11, 11, 11, 6, 3, 1, 28, 28, 27, 18, 16, 12, 8, 8, 7, 16, 11, 7, 18, 16, 14, 25, 23, 21, 14, 9, 8, 29, 29, 28, 15, 12, 5, 12, 11, 11, 25, 17, 13, 24, 18, 8, 16, 13, 9, 22, 20, 16, 27, 24, 18, 24, 24, 22, 25, 25, 25, 29, 26, 25, 12, 9, 3, 19, 13, 9, 26, 15, 6, 23, 20, 17, 15, 15, 9, 23, 16, 11, 21, 20, 8, 18, 17, 15, 27, 27, 25, 9, 9, 8, 2, 2, 2|];